36
29
9
72
60
79
6
17
98
48
83
81
45
28
8
85
57
97
18
3
99
63
66
22
12
35
52
50
54
13
82
67
40
77
68
39
74
32
33
58
53
31
93
41
25
20
86
84
91
55
16
71
30
70
4
7
23
88
56
92
64
47
0
42
61
87
21
10
15
19
51
2
24
37
44
43
26
27
59
11
65
95
96
62
89
1
46
76
34
5
38
69
80
75
49
78
90
73
94
14
